NAME : anjos-75-04.-305.tour
COMMENT : Length = -305
COMMENT : Found by LKH [Keld Helsgaun] Sun Apr 13 17:05:01 2025
TYPE : TOUR
DIMENSION : 75
TOUR_SECTION
1
13
19
28
44
3
65
54
75
18
58
22
45
66
25
16
7
60
37
50
32
74
49
56
31
4
42
47
57
48
51
40
39
30
20
41
64
29
12
46
67
35
33
5
15
14
61
69
73
62
10
36
23
8
68
59
11
52
55
70
27
38
9
17
21
6
2
26
72
24
34
53
63
71
43
-1
EOF
